(set-logic QF_SLAH)

(declare-datatypes ((data_t 0)) (((c_data_t (sz Int)))))

(declare-heap (Int data_t))

(define-fun hck ((?x Int) (?y Int) (?v Int)) Bool
	(and
		(>= (- ?y ?x) 2) (<= (- ?y ?x) ?v)
		(sep (pto ?x (c_data_t (- ?y ?x))) (blk (+ ?x 1) ?y))
))

(define-fun-rec hls ((?x Int) (?y Int) (?v Int)) Bool
	(or
		(and (= ?x ?y) (_ emp Int data_t))
		(exists ((?w Int)) (sep (hck ?x ?w ?v) (hls ?w ?y ?v)))
))

(declare-const x0 Int)
(declare-const x1 Int)
(declare-const v0 Int)
(declare-const x2 Int)
(declare-const x3 Int)
(declare-const v2 Int)
(declare-const x4 Int)
(declare-const x5 Int)
(declare-const v4 Int)
(declare-const x6 Int)
(declare-const x7 Int)
(declare-const x8 Int)
(declare-const x9 Int)
(declare-const v8 Int)
(declare-const x10 Int)
(declare-const x11 Int)
(declare-const v10 Int)
(declare-const x12 Int)
(declare-const x13 Int)
(declare-const x14 Int)
(declare-const x15 Int)
(declare-const x16 Int)
(declare-const x17 Int)
(declare-const x18 Int)
(declare-const x19 Int)
(declare-const v18 Int)
(declare-const x20 Int)
(declare-const x21 Int)
(declare-const v20 Int)
(declare-const x22 Int)
(declare-const x23 Int)
(declare-const v22 Int)
(declare-const x24 Int)
(declare-const x25 Int)
(declare-const v24 Int)
(declare-const x26 Int)
(declare-const x27 Int)
(declare-const x28 Int)
(declare-const x29 Int)
(declare-const v28 Int)
(declare-const x30 Int)
(declare-const x31 Int)
(declare-const x32 Int)
(declare-const x33 Int)
(declare-const x34 Int)
(declare-const x35 Int)
(declare-const x36 Int)
(declare-const x37 Int)
(declare-const x38 Int)
(declare-const x39 Int)
(declare-const x40 Int)
(declare-const x41 Int)
(declare-const x42 Int)
(declare-const x43 Int)
(declare-const v42 Int)
(declare-const x44 Int)
(declare-const x45 Int)
(declare-const x46 Int)
(declare-const x47 Int)
(declare-const v46 Int)
(declare-const x48 Int)
(declare-const x49 Int)
(declare-const v48 Int)
(declare-const x50 Int)
(declare-const x51 Int)
(declare-const x52 Int)
(declare-const x53 Int)
(declare-const v52 Int)
(declare-const x54 Int)
(declare-const x55 Int)
(declare-const x56 Int)
(declare-const x57 Int)
(declare-const v56 Int)
(declare-const x58 Int)
(declare-const x59 Int)
(declare-const x60 Int)
(declare-const x61 Int)
(declare-const x62 Int)
(declare-const x63 Int)
(declare-const x64 Int)
(declare-const x65 Int)
(declare-const x66 Int)
(declare-const x67 Int)
(declare-const v66 Int)
(declare-const x68 Int)
(declare-const x69 Int)
(declare-const x70 Int)
(declare-const x71 Int)
(declare-const x72 Int)
(declare-const x73 Int)
(declare-const x74 Int)
(declare-const x75 Int)
(declare-const v74 Int)
(declare-const x76 Int)
(declare-const x77 Int)
(declare-const v76 Int)
(declare-const x78 Int)
(declare-const x79 Int)
(declare-const v78 Int)
(declare-const x80 Int)
(declare-const x81 Int)
(declare-const x82 Int)
(declare-const x83 Int)
(declare-const x84 Int)
(declare-const x85 Int)
(declare-const v84 Int)
(declare-const x86 Int)
(declare-const x87 Int)
(declare-const x88 Int)
(declare-const x89 Int)
(declare-const x90 Int)
(declare-const x91 Int)
(declare-const x92 Int)
(declare-const x93 Int)
(declare-const x94 Int)
(declare-const x95 Int)
(declare-const x96 Int)
(declare-const x97 Int)
(declare-const x98 Int)
(declare-const x99 Int)
(declare-const x100 Int)
(declare-const x101 Int)
(declare-const v100 Int)
(declare-const x102 Int)
(declare-const x103 Int)
(declare-const x104 Int)
(declare-const x105 Int)
(declare-const v104 Int)
(declare-const x106 Int)
(declare-const x107 Int)
(declare-const x108 Int)
(declare-const x109 Int)
(declare-const x110 Int)
(declare-const x111 Int)
(declare-const x112 Int)
(declare-const x113 Int)
(declare-const x114 Int)
(declare-const x115 Int)
(declare-const x116 Int)
(declare-const x117 Int)
(declare-const x118 Int)
(declare-const x119 Int)
(declare-const v118 Int)
(declare-const x120 Int)
(declare-const x121 Int)
(declare-const v120 Int)
(declare-const x122 Int)
(declare-const x123 Int)
(declare-const x124 Int)
(declare-const x125 Int)
(declare-const v124 Int)
(declare-const x126 Int)
(declare-const x127 Int)
(declare-const v126 Int)
(declare-const x128 Int)
(declare-const x129 Int)

(assert(and
(= x126 x118) (= x96 x107) (< x83 x62) (distinct x48 x49) (= x87 x108) (= x101 x22) (= x56 x22) (< x20 x7) (distinct x91 x57) (distinct x103 x4) (< x67 x1) (= x101 x123) (distinct x117 x30) (distinct x125 x86) (< x4 x11) (< x20 x59) (distinct x115 x110) 
(sep
(hls x0 x1 v0)
(hls x2 x3 v2)
(hls x4 x5 v4)
(blk x6 x7)
(hls x8 x9 v8)
(hls x10 x11 v10)
(blk x12 x13)
(blk x14 x15)
(blk x16 x17)
(hls x18 x19 v18)
(hls x20 x21 v20)
(hls x22 x23 v22)
(hls x24 x25 v24)
(pto x26 (c_data_t x27))
(hls x28 x29 v28)
(pto x30 (c_data_t x31))
(blk x32 x33)
(blk x34 x35)
(pto x36 (c_data_t x37))
(blk x38 x39)
(blk x40 x41)
(hls x42 x43 v42)
(pto x44 (c_data_t x45))
(hls x46 x47 v46)
(hls x48 x49 v48)
(blk x50 x51)
(hls x52 x53 v52)
(blk x54 x55)
(hls x56 x57 v56)
(pto x58 (c_data_t x59))
(pto x60 (c_data_t x61))
(pto x62 (c_data_t x63))
(blk x64 x65)
(hls x66 x67 v66)
(blk x68 x69)
(pto x70 (c_data_t x71))
(blk x72 x73)
(hls x74 x75 v74)
(hls x76 x77 v76)
(hls x78 x79 v78)
(blk x80 x81)
(pto x82 (c_data_t x83))
(hls x84 x85 v84)
(pto x86 (c_data_t x87))
(blk x88 x89)
(blk x90 x91)
(blk x92 x93)
(blk x94 x95)
(blk x96 x97)
(pto x98 (c_data_t x99))
(hls x100 x101 v100)
(pto x102 (c_data_t x103))
(hls x104 x105 v104)
(pto x106 (c_data_t x107))
(pto x108 (c_data_t x109))
(pto x110 (c_data_t x111))
(blk x112 x113)
(blk x114 x115)
(pto x116 (c_data_t x117))
(hls x118 x119 v118)
(hls x120 x121 v120)
(pto x122 (c_data_t x123))
(hls x124 x125 v124)
(hls x126 x127 v126)
(pto x128 (c_data_t x129))
)))

(check-sat)